c FILE: i160-201

c SOURCE: From steinlib

c DESCRIPTION: Steinlib instance with 160 nodes and 240 edges.

p edge 160 240
e 1 11
e 1 15
e 1 103
e 1 135
e 1 149
e 1 158
e 2 71
e 2 73
e 2 94
e 2 100
e 2 130
e 2 153
e 2 155
e 3 67
e 3 83
e 3 130
e 4 50
e 4 83
e 4 141
e 5 53
e 5 80
e 5 142
e 6 8
e 6 66
e 6 83
e 7 64
e 7 131
e 8 19
e 9 16
e 9 23
e 9 55
e 9 143
e 10 57
e 10 76
e 11 74
e 11 80
e 11 93
e 11 99
e 12 145
e 13 41
e 14 96
e 15 37
e 15 44
e 15 46
e 15 55
e 15 91
e 15 113
e 16 43
e 16 75
e 16 137
e 16 153
e 17 27
e 18 137
e 18 146
e 19 135
e 20 36
e 20 103
e 20 137
e 20 155
e 21 71
e 21 90
e 22 40
e 22 61
e 22 135
e 23 50
e 23 141
e 24 42
e 24 63
e 24 121
e 24 153
e 25 26
e 25 31
e 25 131
e 26 132
e 26 157
e 26 159
e 27 140
e 27 141
e 27 156
e 28 43
e 28 76
e 29 91
e 29 123
e 29 151
e 30 37
e 30 41
e 30 83
e 30 93
e 30 108
e 30 114
e 32 46
e 32 53
e 32 154
e 33 75
e 33 136
e 33 148
e 34 112
e 35 39
e 35 40
e 35 52
e 35 82
e 37 119
e 38 46
e 38 58
e 38 92
e 39 54
e 39 75
e 39 132
e 39 153
e 41 65
e 41 73
e 41 119
e 41 133
e 42 97
e 42 114
e 44 72
e 44 152
e 45 123
e 46 68
e 46 101
e 46 111
e 47 137
e 48 95
e 48 160
e 49 98
e 51 156
e 51 159
e 52 55
e 52 86
e 53 72
e 53 97
e 53 104
e 53 138
e 55 61
e 55 116
e 55 131
e 55 150
e 56 99
e 56 118
e 57 80
e 58 78
e 59 72
e 59 153
e 59 156
e 60 86
e 60 156
e 61 104
e 61 142
e 62 83
e 63 93
e 64 85
e 64 87
e 64 97
e 64 103
e 65 109
e 65 125
e 66 85
e 66 150
e 67 69
e 68 93
e 68 148
e 69 75
e 69 129
e 70 105
e 71 152
e 72 131
e 72 133
e 72 139
e 72 160
e 73 77
e 74 118
e 75 156
e 76 89
e 76 97
e 76 133
e 78 103
e 79 124
e 80 84
e 80 86
e 80 144
e 81 92
e 82 114
e 83 86
e 83 107
e 84 101
e 84 115
e 84 155
e 86 135
e 87 88
e 87 110
e 88 111
e 88 120
e 88 129
e 91 137
e 92 93
e 93 123
e 94 103
e 94 104
e 95 137
e 96 100
e 96 135
e 98 101
e 98 159
e 99 137
e 99 140
e 100 114
e 102 116
e 102 123
e 103 112
e 103 147
e 104 140
e 105 117
e 105 129
e 105 132
e 106 113
e 107 114
e 107 122
e 108 134
e 109 152
e 110 125
e 112 133
e 112 142
e 112 145
e 113 158
e 114 132
e 114 149
e 115 141
e 116 127
e 116 151
e 117 134
e 122 138
e 123 137
e 124 132
e 126 136
e 126 137
e 127 144
e 128 157
e 129 154
e 134 155
e 137 145
